Argumentos: 
./solver.release -i 11 -t 86400 -a 7 -h 86400 -w Testes/R2-i11 -m R2_modeloCom2345.mod -o R2_modeloCom2345.mod 
Seed: 1622927965
hidden-TXT/Sc-n070w4.txt
hidden-TXT/H0-n070w4-0.txt
hidden-TXT/WD-n070w4-3.txt hidden-TXT/WD-n070w4-6.txt hidden-TXT/WD-n070w4-5.txt hidden-TXT/WD-n070w4-1.txt 
Reading model section from R2_modeloCom2345.mod...
367 lines were read
Reading data section from Testes/R2-i11/11.dat...
13093 lines were read
Generating obj...
Generating H1turnoDia...
Generating H2coberturaMinima...
Generating H3AsucessaoTurnos...
Generating H3BsucessaoTurnos...
Generating H4qualificacao...
Generating S1coberturaOtima...
Generating S2d...
Generating S2dHist...
Generating S2b...
Generating S2bHist...
Generating auxS5...
Generating S6a...
Generating S6b...
Generating auxS7...
Generating S7...
Model has been successfully generated
Writing problem data to `Testes/R2-i11/11.lp'...
326462 lines were written
CPX0000  Tried aggregator 2 times.
CPX0000  MIP Presolve eliminated 14285 rows and 49984 columns.
CPX0000  MIP Presolve modified 3776 coefficients.
CPX0000  Aggregator did 4 substitutions.
CPX0000  Reduced MIP has 14962 rows, 22919 columns, and 209306 nonzeros.
CPX0000  Reduced MIP has 22494 binaries, 425 generals, 0 SOSs, and 0 indicators.
CPX0000  Presolve time = 0.35 sec. (224.51 ticks)
CPX0000  Found incumbent of value 433630.000000 after 0.81 sec. (599.42 ticks)
[1m[30m[ZEN] [0m00:00:00 [1m[34m 433630.00[1m[32m  100.00%
[0mCPX0000  Probing time = 0.02 sec. (8.16 ticks)
CPX0000  Tried aggregator 1 time.
CPX0000  Reduced MIP has 14962 rows, 22919 columns, and 209306 nonzeros.
CPX0000  Reduced MIP has 22494 binaries, 425 generals, 0 SOSs, and 0 indicators.
CPX0000  Presolve time = 0.10 sec. (76.73 ticks)
CPX0000  Probing time = 0.02 sec. (7.77 ticks)
CPX0000  Clique table members: 9894.
CPX0000  MIP emphasis: balance optimality and feasibility.
CPX0000  MIP search method: dynamic search.
CPX0000  Parallel mode: none, using 1 thread.
CPX0000  Root relaxation solution time = 2.55 sec. (1163.91 ticks)
CPX0000
CPX0000          Nodes                                         Cuts/
CPX0000     Node  Left     Objective  IInf  Best Integer    Best Bound    ItCnt     Gap
CPX0000
CPX0000  *     0+    0                       433630.0000        0.0000     6621  100.00%
CPX0000        0     0      220.0000   703   433630.0000      220.0000     6621   99.95%
CPX0000        0     0      323.3333  1130   433630.0000     Cuts: 955    10064   99.93%
CPX0000        0     0      398.4167  1316   433630.0000     Cuts: 521    12688   99.91%
CPX0000        0     0      402.9167  1267   433630.0000     Cuts: 391    15219   99.91%
CPX0000  *     0+    0                       121460.0000      402.9167    15219   99.67%
[1m[30m[ZEN] [0m00:00:13 [1m[34m 121460.00[1m[32m   99.67%
[0mCPX0000        0     0      405.1389  1378   121460.0000     Cuts: 301    17509   99.67%
CPX0000        0     0      406.4722  1341   121460.0000     Cuts: 325    19999   99.67%
CPX0000        0     0      409.8056  1315   121460.0000     Cuts: 273    22599   99.66%
CPX0000        0     0      412.3056  1396   121460.0000     Cuts: 253    26028   99.66%
CPX0000        0     0      416.0556  1284   121460.0000     Cuts: 235    28909   99.66%
CPX0000        0     0      416.0556  1310   121460.0000     Cuts: 207    31902   99.66%
CPX0000        0     0      416.0556   810   121460.0000      Cuts: 68    32675   99.66%
CPX0000  *     0+    0                         3300.0000      416.0556    32675   87.39%
[1m[30m[ZEN] [0m00:00:33 [1m[34m   3300.00[1m[32m   87.39%
[0mCPX0000  *     0+    0                         1220.0000      416.0556    32675   65.90%
CPX0000  *     0+    0                          940.0000      416.0556    32675   55.74%
CPX0000  *     0+    0                          830.0000      416.0556    32675   49.87%
CPX0000  *     0+    0                          810.0000      416.0556    32675   48.64%
CPX0000  *     0+    0                          790.0000      416.0556    32675   47.33%
[1m[30m[ZEN] [0m00:00:33 [1m[34m    790.00[1m[32m   47.33%
[0mCPX0000        0     0      416.0556   993      790.0000     Cuts: 178    34032   47.33%
CPX0000  *     0+    0                          620.0000      416.0556    34032   32.89%
CPX0000  *     0+    0                          560.0000      416.0556    34032   25.70%
[1m[30m[ZEN] [0m00:00:39 [1m[34m    560.00[1m[32m   25.70%
[0mCPX0000        0     2      416.0556   572      560.0000      418.5556    34032   25.26%
CPX0000  Elapsed time = 39.09 sec. (23290.06 ticks, tree = 0.00 MB
CPX0000        1     3      421.0556   636      560.0000      421.0556    35145   24.81%
CPX0000        2     4      421.0556   627      560.0000      421.0556    36102   24.81%
CPX0000        4     6      421.0556   678      560.0000      421.0556    37102   24.81%
CPX0000        5     7      423.0556   567      560.0000      421.0556    39436   24.81%
CPX0000        6     8      428.0556   631      560.0000      421.0556    43555   24.81%
CPX0000        7     9      439.7222   579      560.0000      421.0556    45620   24.81%
CPX0000        8    10      443.0556   542      560.0000      421.0556    48037   24.81%
CPX0000        9    11      443.0556   552      560.0000      421.0556    48821   24.81%
CPX0000       10    12      443.0556   611      560.0000      421.0556    49910   24.81%
CPX0000       11    13      453.0556   520      560.0000      421.0556    56550   24.81%
CPX0000  Elapsed time = 50.81 sec. (31458.12 ticks, tree = 0.09 MB
CPX0000       12    14      456.3889   514      560.0000      421.0556    60024   24.81%
CPX0000       13    15      458.3889   573      560.0000      421.0556    62366   24.81%
CPX0000       15    17      480.0556   603      560.0000      421.0556    65727   24.81%
CPX0000       23    25      488.3333   450      560.0000      421.0556    67982   24.81%
CPX0000       44    46      510.0000   314      560.0000      421.0556    70704   24.81%
CPX0000       89    90      530.0000    35      560.0000      421.0556    73276   24.81%
CPX0000  *   120+  118                          550.0000      421.0556    74784   23.44%
CPX0000      120   120      530.0000   152      550.0000      421.0556    74784   23.44%
[1m[30m[ZEN] [0m00:01:03 [1m[34m    550.00[1m[32m   23.44%
[0mCPX0000      160   160      530.0000    16      550.0000      421.0556    77654   23.44%
CPX0000  *   187    62      integral     0      530.0000      421.0556    80126   20.56%
[1m[30m[ZEN] [0m00:01:06 [1m[34m    530.00[1m[32m   20.56%
[0mCPX0000      193    68      431.0556   605      530.0000      421.0556    81847   20.56%
CPX0000  Elapsed time = 68.10 sec. (42998.78 ticks, tree = 9.83 MB
CPX0000      211    86      462.7222   537      530.0000      421.0556    84635   20.56%
CPX0000      231   106      490.0000   283      530.0000      421.0556    86675   20.56%
CPX0000      272   128      426.0556   637      530.0000      421.0556    90067   20.56%
CPX0000  *   287+  106                          500.0000      421.0556    92033   15.79%
[1m[30m[ZEN] [0m00:01:13 [1m[34m    500.00[1m[32m   15.79%
[0mCPX0000      288   106      421.0556   694      500.0000      421.0556    92538   15.79%
CPX0000      293   111      455.8333   575      500.0000      421.0556    94846   15.79%
CPX0000      301   116      421.0556   716      500.0000      421.0556    96405   15.79%
CPX0000      307   122      460.8333   590      500.0000      421.0556    98649   15.79%
CPX0000      317   127      421.0556   684      500.0000      421.0556   101199   15.79%
CPX0000      320   130      436.0556   720      500.0000      421.0556   102187   15.79%
CPX0000      328   138      453.8333   530      500.0000      421.0556   104625   15.79%
CPX0000  Elapsed time = 83.68 sec. (53927.99 ticks, tree = 24.17 MB
CPX0000      360   170      490.0000   102      500.0000      421.0556   107144   15.79%
CPX0000      378   182      448.0556   678      500.0000      426.0556   109111   14.79%
CPX0000      393   193      455.8333   580      500.0000      426.0556   111428   14.79%
CPX0000      420   218      495.0000   314      500.0000      426.0556   113976   14.79%
CPX0000      460   249      455.8333   568      500.0000      426.0556   115928   14.79%
CPX0000      486   271      426.0556   709      500.0000      426.0556   118329   14.79%
CPX0000      508   288      450.8333   659      500.0000      431.0556   120770   13.79%
CPX0000      518   295      447.7222   701      500.0000      431.0556   122741   13.79%
CPX0000      527   301      437.7222   720      500.0000      431.0556   125363   13.79%
CPX0000      537   308      431.0556   755      500.0000      431.0556   127849   13.79%
CPX0000  Elapsed time = 98.56 sec. (64830.54 ticks, tree = 57.70 MB
CPX0000      543   314      455.8333   632      500.0000      431.0556   130005   13.79%
CPX0000      551   319      436.0556   715      500.0000      431.0556   132622   13.79%
CPX0000      561   329      488.0000   465      500.0000      431.0556   134775   13.79%
CPX0000      591   352      446.0556   695      500.0000      433.0556   137699   13.39%
CPX0000      600   361      465.8333   584      500.0000      433.0556   139531   13.39%
CPX0000      612   369      448.0556   637      500.0000      433.0556   142021   13.39%
CPX0000      625   378      433.0556   680      500.0000      433.0556   144579   13.39%
CPX0000      634   387      490.0000   445      500.0000      433.0556   147019   13.39%
CPX0000      652   401      438.0556   666      500.0000      433.0556   149229   13.39%
CPX0000      679   428      485.0000   222      500.0000      433.0556   151842   13.39%
CPX0000  Elapsed time = 112.43 sec. (75110.80 ticks, tree = 72.13 MB
CPX0000      726   470      443.0556   689      500.0000      436.0556   153889   12.79%
CPX0000      740   480      446.0556   639      500.0000      436.0556   157160   12.79%
CPX0000      745   485      465.8333   547      500.0000      436.0556   159274   12.79%
CPX0000      754   490      446.0556   573      500.0000      437.7222   161835   12.46%
CPX0000      770   502      477.0000   510      500.0000      437.7222   164348   12.46%
CPX0000      790   518      452.5000   500      500.0000      437.7222   167055   12.46%
CPX0000      809   537      490.8333   353      500.0000      437.7222   169244   12.46%
CPX0000      820   545      488.0000   424      500.0000      437.7222   171584   12.46%
CPX0000      838   558      455.5000   663      500.0000      437.7222   174230   12.46%
CPX0000      855   575      490.0000   212      500.0000      437.7222   176778   12.46%
CPX0000  Elapsed time = 126.01 sec. (85441.76 ticks, tree = 90.07 MB
CPX0000      879   588      469.5000   552      500.0000      437.7222   179630   12.46%
CPX0000      889   592      452.5000   521      500.0000      437.7222   181468   12.46%
CPX0000      917   615      493.0000   496      500.0000      437.7222   184604   12.46%
CPX0000      928   621      455.5000   598      500.0000      439.7222   186968   12.06%
CPX0000      949   636        cutoff            500.0000      439.7222   190010   12.06%
CPX0000      958   642      475.0000   432      500.0000      439.7222   192108   12.06%
CPX0000      965   646      457.5000   522      500.0000      439.7222   194336   12.06%
CPX0000  *   980+    0                          490.0000      490.0000   211485    0.00%
CPX0000  *   980     0      integral     0      490.0000      490.0000   211485    0.00%
CPX0000
CPX0000  GUB cover cuts applied:  360
CPX0000  Clique cuts applied:  490
CPX0000  Cover cuts applied:  72
CPX0000  Mixed integer rounding cuts applied:  110
CPX0000  Zero-half cuts applied:  329
CPX0000  Lift and project cuts applied:  5
CPX0000  Gomory fractional cuts applied:  57
CPX0000
CPX0000  Root node processing (before b&c):
CPX0000    Real time             =   39.04 sec. (23248.02 ticks)
CPX0000  Sequential b&c:
CPX0000    Real time             =  107.20 sec. (77662.62 ticks)
CPX0000                            ------------
CPX0000  Total (root+branch&cut) =  146.24 sec. (100910.64 ticks)
[1m[30m[ZEN] [0m00:02:26 [1m[34m    490.00[1m[32m    0.00%
[0mH2 understaffing: 0
H3 shiftTypeSuccessions: 0
S1 optimalCoverage: 0
S2a consecutiveShift: 12645 = (843,0 )
S2b consecutiveWorkingDays: 16980 = ( 566,0 )
S3 consecutiveDaysOff: 16620 = ( 554,0 )
S4 preferences: 90
S5 completeWeekend: 0
S6 totalAssignments: 400
S7 totalWorkingWeekeends: 0
 

Cost Solution: 46735

      |M|T|W|T|F|S|S| |M|T|W|T|F|S|S| |M|T|W|T|F|S|S| |M|T|W|T|F|S|S|
-----------------------------------------------------------------------
HN_0  |L|N|-|L|-|-|-| |D|D|-|-|N|-|-| |-|-|L|-|L|-|-| |L|-|-|N|-|-|E|
HN_1  |-|E|-|-|D|E|L| |-|L|-|D|-|L|N| |N|N|N|-|D|-|-| |N|-|-|D|L|-|-|
HN_2  |E|D|D|-|E|-|-| |-|-|D|-|E|-|-| |L|-|E|E|-|E|E| |D|D|E|-|E|-|-|
HN_3  |N|-|E|E|L|-|-| |L|-|L|L|L|-|-| |L|-|-|-|-|-|-| |L|-|-|E|-|-|D|
HN_4  |-|E|L|-|L|-|-| |-|D|E|E|L|-|-| |-|D|-|E|E|N|N| |-|-|-|-|D|E|L|
HN_5  |L|-|-|E|N|-|-| |-|L|-|L|-|-|-| |-|L|-|-|-|N|-| |E|N|N|-|E|-|-|
HN_6  |E|N|-|-|D|L|N| |-|-|D|-|D|E|E| |E|D|-|-|L|-|-| |-|D|N|-|N|-|-|
HN_7  |-|D|-|E|-|E|D| |-|E|L|N|-|-|-| |-|D|L|-|E|D|L| |L|-|D|L|-|-|-|
NU_8  |N|-|N|-|-|-|-| |L|L|-|-|D|E|D| |-|-|E|L|N|-|-| |E|E|L|N|N|-|-|
NU_9  |-|E|D|L|-|-|-| |L|-|D|D|L|-|-| |D|L|L|-|N|N|N| |-|E|-|N|-|-|-|
NU_10 |-|D|-|L|-|D|D| |-|E|E|E|E|-|-| |E|L|L|L|L|-|-| |-|-|E|-|E|-|-|
NU_11 |N|N|-|D|E|L|L| |N|-|L|L|L|L|N| |-|D|D|E|E|-|-| |E|D|D|L|L|-|-|
NU_12 |E|-|E|N|-|-|-| |D|D|-|D|-|-|-| |L|-|D|E|D|-|-| |D|D|D|D|E|-|-|
NU_13 |-|-|L|-|D|L|-| |-|-|N|-|-|-|-| |N|-|N|-|N|-|-| |E|D|E|D|-|-|-|
NU_14 |-|L|-|-|-|D|E| |L|N|N|-|E|D|E| |-|-|-|N|N|-|-| |-|L|L|L|L|-|-|
NU_15 |E|L|L|-|N|-|-| |E|L|L|L|-|D|D| |N|N|-|E|-|-|-| |-|E|-|L|-|-|-|
NU_16 |D|N|N|N|N|-|-| |-|-|N|-|E|E|D| |-|-|-|L|-|E|E| |D|D|D|-|N|-|-|
NU_17 |D|L|N|N|-|-|-| |-|-|-|D|E|-|-| |-|E|N|-|D|-|-| |-|-|D|E|-|-|-|
NU_18 |D|E|L|L|N|-|-| |-|N|-|-|D|L|L| |N|-|-|E|E|E|E| |-|D|L|N|-|-|-|
NU_19 |-|D|-|D|D|D|E| |L|-|-|-|D|N|N| |-|D|N|-|D|-|-| |-|E|N|-|E|-|-|
NU_20 |E|E|D|E|L|-|-| |E|D|D|E|D|-|-| |D|E|L|-|L|L|L| |L|N|-|E|D|D|D|
NU_21 |L|-|N|-|-|-|-| |N|-|L|-|L|-|L| |N|-|N|-|-|-|-| |-|L|L|L|-|-|-|
NU_22 |L|-|D|D|N|-|-| |L|L|N|N|N|-|-| |D|D|D|E|-|E|E| |D|D|D|-|D|N|N|
NU_23 |D|-|L|-|D|-|-| |N|N|-|D|E|-|-| |-|D|N|N|N|-|-| |D|L|L|L|-|-|-|
NU_24 |-|N|N|-|-|-|-| |L|-|L|-|-|-|-| |D|-|N|-|D|-|-| |D|-|-|L|L|N|-|
NU_25 |D|D|D|L|L|-|-| |D|E|E|E|D|-|-| |E|D|D|-|D|D|E| |D|D|-|E|D|D|E|
NU_26 |D|-|E|E|D|-|-| |E|E|E|D|D|-|-| |E|L|L|-|E|L|L| |N|-|E|E|D|E|D|
NU_27 |L|N|-|D|N|-|-| |E|E|D|E|E|-|-| |D|E|E|E|-|E|D| |L|L|L|-|L|L|L|
NU_28 |E|L|L|-|L|-|-| |D|D|-|E|L|-|-| |-|-|N|-|L|L|L| |N|N|-|-|N|-|-|
NU_29 |L|L|-|-|E|-|-| |N|N|N|N|N|-|-| |E|N|N|-|D|-|-| |L|-|N|-|E|-|-|
NU_30 |L|L|L|L|-|-|-| |-|-|D|L|-|D|D| |-|N|N|N|N|-|-| |N|-|N|-|L|-|-|
NU_31 |D|E|-|D|E|L|L| |N|-|D|E|E|D|N| |-|L|L|N|N|-|-| |D|L|N|N|N|-|-|
NU_32 |-|D|-|N|-|-|-| |L|L|N|-|L|-|-| |-|D|D|E|-|-|D| |L|L|L|-|-|-|-|
NU_33 |N|-|N|N|N|N|N| |-|D|D|D|N|-|-| |E|E|E|L|L|-|-| |L|-|E|D|E|E|E|
NU_34 |L|-|E|D|E|-|-| |N|-|L|-|-|-|-| |L|-|E|N|-|-|-| |E|-|N|-|D|-|L|
NU_35 |-|D|-|D|D|-|-| |D|E|N|-|L|L|L| |L|-|-|D|-|-|-| |-|D|L|L|L|-|-|
NU_36 |-|E|D|E|E|-|-| |-|E|L|N|-|E|E| |L|L|-|L|-|-|-| |L|-|-|E|D|-|-|
NU_37 |-|E|E|D|D|-|-| |D|D|-|-|E|N|N| |-|D|-|D|E|-|-| |N|N|-|-|L|-|-|
NU_38 |-|N|N|-|-|-|D| |E|-|-|-|N|-|-| |L|-|-|-|L|-|-| |E|E|E|-|D|-|-|
NU_39 |N|-|L|L|-|E|E| |-|-|D|N|-|-|-| |E|-|E|-|L|N|N| |-|E|N|-|D|-|-|
CT_40 |N|N|-|L|-|E|L| |-|L|-|N|N|-|-| |-|-|E|E|L|-|-| |N|N|N|-|L|-|-|
CT_41 |N|N|-|N|-|-|-| |-|-|L|N|N|-|-| |D|-|L|N|-|-|D| |-|D|E|E|-|-|-|
CT_42 |N|-|D|D|L|N|N| |-|D|D|D|L|-|-| |D|E|D|D|N|-|-| |D|D|E|E|-|E|E|
CT_43 |L|N|-|E|D|-|-| |D|N|-|L|L|-|-| |-|N|-|L|-|-|-| |N|-|E|-|L|-|L|
CT_44 |E|E|E|E|L|-|-| |L|-|D|D|D|E|N| |-|L|L|L|L|-|-| |D|E|D|N|-|E|D|
CT_45 |L|L|L|L|L|-|-| |E|E|E|N|N|-|-| |L|N|-|N|N|N|N| |N|-|D|D|D|L|L|
CT_46 |E|E|E|E|E|-|-| |D|D|L|L|L|-|-| |D|N|-|E|E|L|L| |L|-|E|D|E|D|D|
CT_47 |L|L|L|-|L|N|N| |-|E|N|-|E|-|-| |-|D|D|D|D|-|-| |E|E|-|E|-|-|-|
CT_48 |-|E|D|-|E|D|D| |-|N|N|N|-|-|-| |D|N|N|N|-|-|-| |D|E|-|-|D|-|-|
CT_49 |N|-|E|D|E|D|D| |-|E|D|D|N|-|-| |E|E|E|D|E|-|-| |E|D|-|E|E|D|D|
CT_50 |N|N|N|-|-|-|-| |-|N|-|D|E|-|-| |-|N|-|-|-|-|E| |E|L|L|L|-|-|-|
CT_51 |L|L|-|-|E|-|-| |-|L|L|L|-|-|-| |N|-|-|L|N|-|D| |-|L|-|-|-|-|-|
CT_52 |N|N|-|L|N|-|-| |E|D|E|-|L|-|-| |L|L|-|L|-|N|N| |-|N|N|N|-|-|-|
CT_53 |E|E|-|L|L|-|-| |N|N|N|N|N|-|-| |L|L|-|D|D|E|N| |N|-|D|D|E|N|N|
CT_54 |E|D|-|D|D|D|N| |N|-|D|E|D|D|E| |-|D|L|L|N|-|-| |D|E|N|N|N|-|-|
CT_55 |E|D|D|E|D|-|-| |E|L|L|L|N|-|-| |D|E|D|D|-|D|D| |L|N|-|D|D|E|E|
CT_56 |D|L|N|N|N|-|-| |E|D|E|D|N|-|-| |E|E|E|-|D|D|D| |D|-|L|L|N|N|N|
CT_57 |E|D|L|N|-|-|-| |D|D|-|E|-|E|D| |-|-|-|D|L|-|-| |E|N|-|N|N|-|-|
CT_58 |D|D|-|E|-|-|-| |-|-|N|-|D|D|L| |N|-|E|E|D|-|-| |N|N|-|L|N|-|-|
CT_59 |-|-|E|E|E|-|-| |N|-|E|L|-|E|L| |-|E|-|-|D|L|L| |-|L|-|E|L|-|-|
TR_60 |E|L|L|L|L|-|-| |E|D|E|-|E|D|D| |E|E|-|D|E|E|E| |-|E|E|D|E|-|-|
TR_61 |-|L|-|-|E|-|-| |-|-|-|-|D|-|-| |N|-|E|D|D|L|-| |D|N|-|L|-|-|-|
TR_62 |L|L|N|-|D|-|-| |N|-|D|L|L|-|-| |D|-|D|N|-|D|E| |D|D|N|-|D|L|N|
TR_63 |-|E|E|-|L|L|L| |-|L|-|L|-|-|-| |L|-|-|-|-|-|-| |L|-|-|N|N|-|-|
TR_64 |-|-|E|-|N|-|-| |-|E|E|-|L|-|-| |-|E|L|N|-|N|N| |-|L|-|D|D|D|L|
TR_65 |D|E|D|-|D|D|D| |E|D|-|N|N|-|-| |E|L|N|-|D|L|L| |N|-|D|E|E|-|-|
TR_66 |N|-|-|D|-|-|-| |-|-|D|N|N|-|-| |L|-|-|E|E|-|-| |E|-|-|L|-|E|-|
TR_67 |-|D|D|-|-|D|L| |-|L|-|-|-|-|-| |E|D|-|-|N|-|-| |E|E|-|N|-|-|-|
TR_68 |-|-|L|L|-|N|N| |-|N|-|D|E|D|L| |-|-|-|L|L|-|-| |E|L|L|-|L|-|-|
TR_69 |E|N|N|N|-|E|D| |D|N|-|E|D|L|N| |-|D|L|L|N|-|-| |-|E|D|E|D|-|-|


Hard constraint violations
--------------------------

Minimal coverage constraints: 0
Required skill constraints: 0
Illegal shift type succession constraints: 0
Single assignment per day: 0


Cost per constraint type
------------------------

Total assignment constraints: 400
Consecutive constraints: 29625
Non working days constraints: 16620
Preferences: 90
Max working weekend: 0
Complete weekends: 0
Optimal coverage constraints: 0

------------------------

Total cost: 46735
